num_offers = 40;
num_halls = 10;
start=[24,77,59,44,82,75,14,72,10,30,27,37,12,1,39,23,47,52,22,14,6,2,83,1,67,15,44,49,54,31,23,47,21,8,39,11,33,62,47,7];
end=[26,92,100,86,100,82,55,96,99,68,56,38,14,25,84,53,90,66,56,32,12,19,98,38,80,53,99,78,67,62,91,96,69,92,54,78,77,82,54,68];
price=[72,1437,1032,3302,670,457,715,1043,4707,917,2738,154,52,1678,4317,2871,1539,1011,2539,1000,286,753,1353,1373,351,1470,2089,1464,1215,1118,4963,4369,4823,1732,1111,3319,4301,1268,182,1033];
requirement=[748,712,729,752,336,903,415,274,557,461,890,349,777,239,850,482,629,604,966,746,425,935,888,736,637,507,598,594,303,874,286,927,754,303,992,380,651,659,928,997];
capacity=[474,918,542,572,382,616,593,910,512,961];
